p cnf 34 89
1 11 -10 0
1 -11 10 0
-1 11 10 0
-1 -11 -10 0
2 18 -17 0
2 -18 17 0
-2 18 17 0
-2 -18 -17 0
3 25 -24 0
3 -25 24 0
-3 25 24 0
-3 -25 -24 0
4 32 -31 0
4 -32 31 0
-4 32 31 0
-4 -32 -31 0
5 9 -9 0
5 -9 9 0
-5 9 9 0
-5 -9 -9 0
5 0
-6 10 0
-6 11 0
6 -11 -10 0
7 -6 0
7 -8 0
-7 8 6 0
-8 1 0
-8 13 0
8 -13 -1 0
9 13 -1 0
9 -13 1 0
-9 13 1 0
-9 -13 -1 0
11 33 -12 0
11 -33 12 0
-11 33 12 0
-11 -33 -12 0
13 -14 0
13 -15 0
-13 15 14 0
-14 2 0
-14 20 0
14 -20 -2 0
-15 17 0
-15 18 0
15 -18 -17 0
16 20 -2 0
16 -20 2 0
-16 20 2 0
-16 -20 -2 0
18 33 -19 0
18 -33 19 0
-18 33 19 0
-18 -33 -19 0
20 -21 0
20 -22 0
-20 22 21 0
-21 3 0
-21 27 0
21 -27 -3 0
-22 24 0
-22 25 0
22 -25 -24 0
23 27 -3 0
23 -27 3 0
-23 27 3 0
-23 -27 -3 0
25 33 -26 0
25 -33 26 0
-25 33 26 0
-25 -33 -26 0
27 -28 0
27 -29 0
-27 29 28 0
-28 4 0
-28 33 0
28 -33 -4 0
-29 31 0
-29 32 0
29 -32 -31 0
30 33 -4 0
30 -33 4 0
-30 33 4 0
-30 -33 -4 0
32 34 -33 0
32 -34 33 0
-32 34 33 0
-32 -34 -33 0
